min: c;

c = 3.48636302824652 * u4_t1_h1 + 3.3290569615496 * u4_t1_h2 + 3.05504408692884 * u4_t1_h3 + 3.60158066519843 * u4_t1_h4 + 3.60158066519843 * u4_t10_h4 + 3.18409426874709 * u4_t1_h5 + 3.18409426874709 * u4_t10_h5 + 3.8252904596349 * u4_t1_h6 + 3.8252904596349 * u4_t10_h6 + 4.20236469683055 * u4_t1_h7 + 4.20236469683055 * u4_t10_h7 + 5.49370608156819 * u4_t1_h8 + 5.49370608156819 * u4_t9_h8 + 5.49370608156819 * u4_t10_h8 + 4.94540583534894 * u4_t9_h9 + 4.94540583534894 * u4_t10_h9 + 5.51699536177672 * u4_t9_h10 + 5.51699536177672 * u4_t10_h10 + 3.68201402092796 * u4_t2_h11 + 3.68201402092796 * u4_t4_h11 + 3.68201402092796 * u4_t9_h11 + 3.68201402092796 * u4_t10_h11 + 6.49795403092821 * u4_t2_h12 + 6.49795403092821 * u4_t3_h12 + 6.49795403092821 * u4_t4_h12 + 6.49795403092821 * u4_t8_h12 + 6.49795403092821 * u4_t9_h12 + 6.49795403092821 * u4_t10_h12 + 4.46086453425624 * u4_t2_h13 + 4.46086453425624 * u4_t3_h13 + 4.46086453425624 * u4_t4_h13 + 4.46086453425624 * u4_t8_h13 + 4.46086453425624 * u4_t9_h13 + 5.62873630520466 * u4_t2_h14 + 5.62873630520466 * u4_t3_h14 + 5.62873630520466 * u4_t4_h14 + 5.62873630520466 * u4_t8_h14 + 5.62873630520466 * u4_t9_h14 + 5.71478462954955 * u4_t2_h15 + 5.71478462954955 * u4_t3_h15 + 5.71478462954955 * u4_t4_h15 + 5.71478462954955 * u4_t8_h15 + 5.71478462954955 * u4_t9_h15 + 6.32676153018085 * u4_t2_h16 + 6.32676153018085 * u4_t3_h16 + 6.32676153018085 * u4_t4_h16 + 6.32676153018085 * u4_t5_h16 + 6.32676153018085 * u4_t8_h16 + 6.32676153018085 * u4_t9_h16 + 6.69162389965542 * u4_t2_h17 + 6.69162389965542 * u4_t3_h17 + 6.69162389965542 * u4_t5_h17 + 6.69162389965542 * u4_t8_h17 + 6.69162389965542 * u4_t9_h17 + 6.67283411929138 * u4_t2_h18 + 6.67283411929138 * u4_t3_h18 + 6.67283411929138 * u4_t5_h18 + 6.67283411929138 * u4_t8_h18 + 6.67283411929138 * u4_t9_h18 + 5.81991288986062 * u4_t2_h19 + 5.81991288986062 * u4_t3_h19 + 5.81991288986062 * u4_t6_h19 + 5.81991288986062 * u4_t8_h19 + 5.81991288986062 * u4_t9_h19 + 5.76369007145477 * u4_t2_h20 + 5.76369007145477 * u4_t6_h20 + 5.76369007145477 * u4_t9_h20 + 5.22709510137068 * u4_t6_h21 + 5.12829541645827 * u4_t6_h22 + 5.12829541645827 * u4_t7_h22 + 5.44571385465919 * u4_t6_h23 + 5.44571385465919 * u4_t7_h23;
0 <= u4_t1_h1 <= 1;
0 <= u4_t1_h2 <= 1;
0 <= u4_t1_h3 <= 1;
0 <= u4_t1_h4 <= 1;
0 <= u4_t1_h5 <= 1;
0 <= u4_t1_h6 <= 1;
0 <= u4_t1_h7 <= 1;
0 <= u4_t1_h8 <= 1;
u4_t1_h1 + u4_t1_h2 + u4_t1_h3 + u4_t1_h4 + u4_t1_h5 + u4_t1_h6 + u4_t1_h7 + u4_t1_h8 = 1;
0 <= u4_t2_h11 <= 1;
0 <= u4_t2_h12 <= 1;
0 <= u4_t2_h13 <= 1;
0 <= u4_t2_h14 <= 1;
0 <= u4_t2_h15 <= 1;
0 <= u4_t2_h16 <= 1;
0 <= u4_t2_h17 <= 1;
0 <= u4_t2_h18 <= 1;
0 <= u4_t2_h19 <= 1;
0 <= u4_t2_h20 <= 1;
u4_t2_h11 + u4_t2_h12 + u4_t2_h13 + u4_t2_h14 + u4_t2_h15 + u4_t2_h16 + u4_t2_h17 + u4_t2_h18 + u4_t2_h19 + u4_t2_h20 = 2;
0 <= u4_t3_h12 <= 1;
0 <= u4_t3_h13 <= 1;
0 <= u4_t3_h14 <= 1;
0 <= u4_t3_h15 <= 1;
0 <= u4_t3_h16 <= 1;
0 <= u4_t3_h17 <= 1;
0 <= u4_t3_h18 <= 1;
0 <= u4_t3_h19 <= 1;
u4_t3_h12 + u4_t3_h13 + u4_t3_h14 + u4_t3_h15 + u4_t3_h16 + u4_t3_h17 + u4_t3_h18 + u4_t3_h19 = 3;
0 <= u4_t4_h11 <= 1;
0 <= u4_t4_h12 <= 1;
0 <= u4_t4_h13 <= 1;
0 <= u4_t4_h14 <= 1;
0 <= u4_t4_h15 <= 1;
0 <= u4_t4_h16 <= 1;
u4_t4_h11 + u4_t4_h12 + u4_t4_h13 + u4_t4_h14 + u4_t4_h15 + u4_t4_h16 = 3;
0 <= u4_t5_h16 <= 1;
0 <= u4_t5_h17 <= 1;
0 <= u4_t5_h18 <= 1;
u4_t5_h16 + u4_t5_h17 + u4_t5_h18 = 1;
0 <= u4_t6_h19 <= 1;
0 <= u4_t6_h20 <= 1;
0 <= u4_t6_h21 <= 1;
0 <= u4_t6_h22 <= 1;
0 <= u4_t6_h23 <= 1;
u4_t6_h19 + u4_t6_h20 + u4_t6_h21 + u4_t6_h22 + u4_t6_h23 = 3;
0 <= u4_t7_h22 <= 1;
0 <= u4_t7_h23 <= 1;
u4_t7_h22 + u4_t7_h23 = 1;
0 <= u4_t8_h12 <= 1;
0 <= u4_t8_h13 <= 1;
0 <= u4_t8_h14 <= 1;
0 <= u4_t8_h15 <= 1;
0 <= u4_t8_h16 <= 1;
0 <= u4_t8_h17 <= 1;
0 <= u4_t8_h18 <= 1;
0 <= u4_t8_h19 <= 1;
u4_t8_h12 + u4_t8_h13 + u4_t8_h14 + u4_t8_h15 + u4_t8_h16 + u4_t8_h17 + u4_t8_h18 + u4_t8_h19 = 2;
0 <= u4_t9_h8 <= 1;
0 <= u4_t9_h9 <= 1;
0 <= u4_t9_h10 <= 1;
0 <= u4_t9_h11 <= 1;
0 <= u4_t9_h12 <= 1;
0 <= u4_t9_h13 <= 1;
0 <= u4_t9_h14 <= 1;
0 <= u4_t9_h15 <= 1;
0 <= u4_t9_h16 <= 1;
0 <= u4_t9_h17 <= 1;
0 <= u4_t9_h18 <= 1;
0 <= u4_t9_h19 <= 1;
0 <= u4_t9_h20 <= 1;
u4_t9_h8 + u4_t9_h9 + u4_t9_h10 + u4_t9_h11 + u4_t9_h12 + u4_t9_h13 + u4_t9_h14 + u4_t9_h15 + u4_t9_h16 + u4_t9_h17 + u4_t9_h18 + u4_t9_h19 + u4_t9_h20 = 2;
0 <= u4_t10_h4 <= 1;
0 <= u4_t10_h5 <= 1;
0 <= u4_t10_h6 <= 1;
0 <= u4_t10_h7 <= 1;
0 <= u4_t10_h8 <= 1;
0 <= u4_t10_h9 <= 1;
0 <= u4_t10_h10 <= 1;
0 <= u4_t10_h11 <= 1;
0 <= u4_t10_h12 <= 1;
u4_t10_h4 + u4_t10_h5 + u4_t10_h6 + u4_t10_h7 + u4_t10_h8 + u4_t10_h9 + u4_t10_h10 + u4_t10_h11 + u4_t10_h12 = 2;
